14° run output:
{
    "Function": "euclidB300.tsp",
    "Problem dimension": [
        284,
        257,
        10,
        125,
        172,
        88,
        87,
        153,
        72,
        194,
        217,
        27,
        278,
        62,
        45,
        63,
        1,
        91,
        148,
        226,
        280,
        245,
        129,
        16,
        279,
        20,
        171,
        103,
        40,
        54,
        24,
        120,
        215,
        244,
        220,
        119,
        235,
        294,
        168,
        225,
        197,
        175,
        200,
        55,
        236,
        82,
        93,
        11,
        80,
        50,
        228,
        219,
        38,
        77,
        221,
        47,
        187,
        292,
        29,
        139,
        252,
        97,
        116,
        207,
        288,
        142,
        203,
        230,
        246,
        136,
        224,
        296,
        41,
        132,
        48,
        157,
        25,
        298,
        26,
        17,
        135,
        256,
        277,
        201,
        137,
        127,
        255,
        276,
        253,
        290,
        76,
        56,
        23,
        156,
        242,
        299,
        192,
        196,
        65,
        49,
        14,
        163,
        114,
        13,
        249,
        81,
        28,
        133,
        90,
        234,
        166,
        145,
        233,
        214,
        31,
        71,
        112,
        262,
        152,
        212,
        275,
        271,
        51,
        126,
        3,
        174,
        104,
        222,
        289,
        113,
        0,
        18,
        4,
        258,
        64,
        213,
        216,
        281,
        261,
        78,
        182,
        198,
        158,
        169,
        60,
        231,
        259,
        211,
        195,
        67,
        285,
        83,
        22,
        6,
        181,
        92,
        39,
        96,
        2,
        140,
        293,
        53,
        239,
        272,
        118,
        68,
        35,
        57,
        291,
        150,
        107,
        15,
        98,
        100,
        143,
        151,
        115,
        124,
        208,
        106,
        282,
        240,
        173,
        170,
        61,
        149,
        210,
        223,
        218,
        146,
        177,
        268,
        34,
        254,
        74,
        183,
        73,
        185,
        5,
        111,
        46,
        66,
        180,
        190,
        247,
        295,
        159,
        204,
        267,
        144,
        229,
        199,
        12,
        251,
        43,
        238,
        109,
        188,
        79,
        178,
        7,
        161,
        160,
        94,
        286,
        9,
        269,
        19,
        99,
        184,
        165,
        179,
        206,
        108,
        110,
        134,
        52,
        101,
        260,
        37,
        186,
        122,
        243,
        131,
        274,
        141,
        59,
        89,
        176,
        42,
        123,
        202,
        297,
        147,
        205,
        241,
        21,
        75,
        263,
        44,
        248,
        69,
        162,
        273,
        8,
        121,
        85,
        84,
        250,
        209,
        237,
        193,
        30,
        189,
        232,
        167,
        266,
        287,
        191,
        130,
        265,
        102,
        138,
        33,
        227,
        164,
        154,
        105,
        70,
        270,
        155,
        264,
        95,
        32,
        86,
        58,
        36,
        128,
        283,
        117
    ],
    "Global Optimum": 0,
    "Algorithm": "Genetic algorithm",
    "Parameters": {
        "population": 30,
        "offspring": 30,
        "mutation probability": 0.0033333333333333335,
        "crossover probability": 0.9
    },
    "Fitness": 270430,
    "Solution": [
        284,
        257,
        10,
        125,
        172,
        88,
        87,
        153,
        72,
        194,
        217,
        27,
        278,
        62,
        45,
        63,
        1,
        91,
        148,
        226,
        280,
        245,
        129,
        16,
        279,
        20,
        171,
        103,
        40,
        54,
        24,
        120,
        215,
        244,
        220,
        119,
        235,
        294,
        168,
        225,
        197,
        175,
        200,
        55,
        236,
        82,
        93,
        11,
        80,
        50,
        228,
        219,
        38,
        77,
        221,
        47,
        187,
        292,
        29,
        139,
        252,
        97,
        116,
        207,
        288,
        142,
        203,
        230,
        246,
        136,
        224,
        296,
        41,
        132,
        48,
        157,
        25,
        298,
        26,
        17,
        135,
        256,
        277,
        201,
        137,
        127,
        255,
        276,
        253,
        290,
        76,
        56,
        23,
        156,
        242,
        299,
        192,
        196,
        65,
        49,
        14,
        163,
        114,
        13,
        249,
        81,
        28,
        133,
        90,
        234,
        166,
        145,
        233,
        214,
        31,
        71,
        112,
        262,
        152,
        212,
        275,
        271,
        51,
        126,
        3,
        174,
        104,
        222,
        289,
        113,
        0,
        18,
        4,
        258,
        64,
        213,
        216,
        281,
        261,
        78,
        182,
        198,
        158,
        169,
        60,
        231,
        259,
        211,
        195,
        67,
        285,
        83,
        22,
        6,
        181,
        92,
        39,
        96,
        2,
        140,
        293,
        53,
        239,
        272,
        118,
        68,
        35,
        57,
        291,
        150,
        107,
        15,
        98,
        100,
        143,
        151,
        115,
        124,
        208,
        106,
        282,
        240,
        173,
        170,
        61,
        149,
        210,
        223,
        218,
        146,
        177,
        268,
        34,
        254,
        74,
        183,
        73,
        185,
        5,
        111,
        46,
        66,
        180,
        190,
        247,
        295,
        159,
        204,
        267,
        144,
        229,
        199,
        12,
        251,
        43,
        238,
        109,
        188,
        79,
        178,
        7,
        161,
        160,
        94,
        286,
        9,
        269,
        19,
        99,
        184,
        165,
        179,
        206,
        108,
        110,
        134,
        52,
        101,
        260,
        37,
        186,
        122,
        243,
        131,
        274,
        141,
        59,
        89,
        176,
        42,
        123,
        202,
        297,
        147,
        205,
        241,
        21,
        75,
        263,
        44,
        248,
        69,
        162,
        273,
        8,
        121,
        85,
        84,
        250,
        209,
        237,
        193,
        30,
        189,
        232,
        167,
        266,
        287,
        191,
        130,
        265,
        102,
        138,
        33,
        227,
        164,
        154,
        105,
        70,
        270,
        155,
        264,
        95,
        32,
        86,
        58,
        36,
        128,
        283,
        117
    ],
    "Nb of functions evaluations": 400020,
    "Computational time in seconds": 692.1667127609253,
    "Stopping criterion in evaluations": 400000
}